24° run output:
{
    "Function": "euclidA300.tsp",
    "Problem dimension": [
        258,
        63,
        19,
        286,
        209,
        226,
        76,
        203,
        17,
        97,
        181,
        18,
        28,
        14,
        160,
        289,
        11,
        206,
        233,
        194,
        224,
        102,
        8,
        299,
        3,
        104,
        213,
        117,
        51,
        80,
        156,
        77,
        255,
        283,
        185,
        210,
        52,
        202,
        55,
        248,
        16,
        98,
        67,
        193,
        175,
        40,
        83,
        183,
        169,
        275,
        165,
        0,
        32,
        227,
        53,
        172,
        99,
        214,
        94,
        253,
        238,
        273,
        266,
        291,
        190,
        252,
        231,
        284,
        178,
        192,
        295,
        50,
        228,
        123,
        62,
        127,
        158,
        101,
        157,
        129,
        197,
        33,
        220,
        189,
        251,
        12,
        20,
        222,
        243,
        111,
        49,
        105,
        223,
        186,
        247,
        47,
        232,
        121,
        265,
        150,
        88,
        267,
        140,
        54,
        272,
        96,
        147,
        75,
        212,
        108,
        177,
        58,
        30,
        70,
        37,
        218,
        122,
        31,
        239,
        4,
        196,
        43,
        73,
        2,
        245,
        144,
        242,
        143,
        244,
        130,
        173,
        113,
        182,
        95,
        119,
        159,
        297,
        237,
        84,
        201,
        250,
        146,
        225,
        148,
        89,
        68,
        211,
        285,
        135,
        263,
        26,
        207,
        152,
        280,
        278,
        277,
        187,
        142,
        296,
        86,
        167,
        27,
        254,
        137,
        217,
        116,
        256,
        61,
        82,
        59,
        168,
        115,
        79,
        74,
        60,
        34,
        125,
        204,
        92,
        81,
        131,
        29,
        57,
        215,
        141,
        170,
        279,
        205,
        91,
        260,
        48,
        136,
        78,
        21,
        198,
        219,
        149,
        93,
        109,
        138,
        87,
        180,
        235,
        6,
        292,
        208,
        230,
        164,
        9,
        145,
        112,
        161,
        71,
        132,
        261,
        287,
        151,
        270,
        65,
        162,
        120,
        153,
        163,
        118,
        1,
        66,
        195,
        128,
        257,
        216,
        264,
        184,
        290,
        7,
        25,
        126,
        85,
        276,
        234,
        294,
        236,
        69,
        200,
        134,
        229,
        139,
        103,
        259,
        36,
        288,
        155,
        268,
        133,
        72,
        56,
        199,
        241,
        176,
        154,
        171,
        262,
        90,
        298,
        44,
        191,
        110,
        23,
        282,
        114,
        42,
        38,
        100,
        10,
        293,
        22,
        271,
        106,
        5,
        13,
        15,
        124,
        269,
        41,
        221,
        249,
        166,
        35,
        39,
        107,
        46,
        179,
        174,
        281,
        64,
        188,
        246,
        45,
        274,
        24,
        240
    ],
    "Global Optimum": 0,
    "Algorithm": "Genetic algorithm",
    "Parameters": {
        "population": 30,
        "offspring": 30,
        "mutation probability": 0.0033333333333333335,
        "crossover probability": 0.9
    },
    "Fitness": 379199,
    "Solution": [
        258,
        63,
        19,
        286,
        209,
        226,
        76,
        203,
        17,
        97,
        181,
        18,
        28,
        14,
        160,
        289,
        11,
        206,
        233,
        194,
        224,
        102,
        8,
        299,
        3,
        104,
        213,
        117,
        51,
        80,
        156,
        77,
        255,
        283,
        185,
        210,
        52,
        202,
        55,
        248,
        16,
        98,
        67,
        193,
        175,
        40,
        83,
        183,
        169,
        275,
        165,
        0,
        32,
        227,
        53,
        172,
        99,
        214,
        94,
        253,
        238,
        273,
        266,
        291,
        190,
        252,
        231,
        284,
        178,
        192,
        295,
        50,
        228,
        123,
        62,
        127,
        158,
        101,
        157,
        129,
        197,
        33,
        220,
        189,
        251,
        12,
        20,
        222,
        243,
        111,
        49,
        105,
        223,
        186,
        247,
        47,
        232,
        121,
        265,
        150,
        88,
        267,
        140,
        54,
        272,
        96,
        147,
        75,
        212,
        108,
        177,
        58,
        30,
        70,
        37,
        218,
        122,
        31,
        239,
        4,
        196,
        43,
        73,
        2,
        245,
        144,
        242,
        143,
        244,
        130,
        173,
        113,
        182,
        95,
        119,
        159,
        297,
        237,
        84,
        201,
        250,
        146,
        225,
        148,
        89,
        68,
        211,
        285,
        135,
        263,
        26,
        207,
        152,
        280,
        278,
        277,
        187,
        142,
        296,
        86,
        167,
        27,
        254,
        137,
        217,
        116,
        256,
        61,
        82,
        59,
        168,
        115,
        79,
        74,
        60,
        34,
        125,
        204,
        92,
        81,
        131,
        29,
        57,
        215,
        141,
        170,
        279,
        205,
        91,
        260,
        48,
        136,
        78,
        21,
        198,
        219,
        149,
        93,
        109,
        138,
        87,
        180,
        235,
        6,
        292,
        208,
        230,
        164,
        9,
        145,
        112,
        161,
        71,
        132,
        261,
        287,
        151,
        270,
        65,
        162,
        120,
        153,
        163,
        118,
        1,
        66,
        195,
        128,
        257,
        216,
        264,
        184,
        290,
        7,
        25,
        126,
        85,
        276,
        234,
        294,
        236,
        69,
        200,
        134,
        229,
        139,
        103,
        259,
        36,
        288,
        155,
        268,
        133,
        72,
        56,
        199,
        241,
        176,
        154,
        171,
        262,
        90,
        298,
        44,
        191,
        110,
        23,
        282,
        114,
        42,
        38,
        100,
        10,
        293,
        22,
        271,
        106,
        5,
        13,
        15,
        124,
        269,
        41,
        221,
        249,
        166,
        35,
        39,
        107,
        46,
        179,
        174,
        281,
        64,
        188,
        246,
        45,
        274,
        24,
        240
    ],
    "Nb of functions evaluations": 50010,
    "Computational time in seconds": 141.89461064338684,
    "Stopping criterion in evaluations": 50000
}